# Solution for model Residenece MIP Model
# Objective value = 1.3206780000000016e+05
X(0_0) 480
X(0_1) 370
X(0_2) 0
X(0_3) 0
X(0_4) 135
X(0_5) 0
X(0_6) 468
X(0_7) 384
X(0_8) 0
X(0_9) 0
X(0_10) 135
X(0_11) 0
X(0_12) 468
X(0_13) 384
X(0_14) 0
X(0_15) 0
X(0_16) 0
X(0_17) 0
X(1_0) 0
X(1_1) 0
X(1_2) 144
X(1_3) 90
X(1_4) 90
X(1_5) 143
X(1_6) 0
X(1_7) 0
X(1_8) 135
X(1_9) 96
X(1_10) 92
X(1_11) 144
X(1_12) 0
X(1_13) 0
X(1_14) 135
X(1_15) 96
X(1_16) 92
X(1_17) 144
X(2_0) 240
X(2_1) 240
X(2_2) 240
X(2_3) 0
X(2_4) 0
X(2_5) 0
X(2_6) 240
X(2_7) 236
X(2_8) 192
X(2_9) 90
X(2_10) 0
X(2_11) 0
X(2_12) 240
X(2_13) 90
X(2_14) 188
X(2_15) 240
X(2_16) 0
X(2_17) 0
X(3_0) 424
X(3_1) 405
X(3_2) 424
X(3_3) 0
X(3_4) 135
X(3_5) 0
X(3_6) 424
X(3_7) 424
X(3_8) 424
X(3_9) 0
X(3_10) 135
X(3_11) 0
X(3_12) 424
X(3_13) 424
X(3_14) 424
X(3_15) 0
X(3_16) 0
X(3_17) 0
X(4_0) 0
X(4_1) 0
X(4_2) 0
X(4_3) 191
X(4_4) 192
X(4_5) 180
X(4_6) 0
X(4_7) 0
X(4_8) 0
X(4_9) 191
X(4_10) 180
X(4_11) 192
X(4_12) 0
X(4_13) 0
X(4_14) 0
X(4_15) 180
X(4_16) 191
X(4_17) 192
X(5_0) 0
X(5_1) 135
X(5_2) 0
X(5_3) 0
X(5_4) 90
X(5_5) 135
X(5_6) 144
X(5_7) 135
X(5_8) 0
X(5_9) 0
X(5_10) 90
X(5_11) 135
X(5_12) 144
X(5_13) 135
X(5_14) 0
X(5_15) 0
X(5_16) 0
X(5_17) 0
X(6_0) 0
X(6_1) 0
X(6_2) 96
X(6_3) 96
X(6_4) 96
X(6_5) 96
X(6_6) 0
X(6_7) 0
X(6_8) 96
X(6_9) 96
X(6_10) 96
X(6_11) 96
X(6_12) 0
X(6_13) 0
X(6_14) 96
X(6_15) 96
X(6_16) 96
X(6_17) 96
X(7_0) 0
X(7_1) 0
X(7_2) 0
X(7_3) 144
X(7_4) 144
X(7_5) 139
X(7_6) 0
X(7_7) 0
X(7_8) 0
X(7_9) 144
X(7_10) 144
X(7_11) 139
X(7_12) 0
X(7_13) 0
X(7_14) 0
X(7_15) 144
X(7_16) 144
X(7_17) 137
X(8_0) 0
X(8_1) 0
X(8_2) 142
X(8_3) 192
X(8_4) 192
X(8_5) 90
X(8_6) 0
X(8_7) 0
X(8_8) 96
X(8_9) 192
X(8_10) 192
X(8_11) 135
X(8_12) 0
X(8_13) 0
X(8_14) 96
X(8_15) 192
X(8_16) 192
X(8_17) 135
X(9_0) 0
X(9_1) 0
X(9_2) 96
X(9_3) 144
X(9_4) 144
X(9_5) 96
X(9_6) 0
X(9_7) 0
X(9_8) 96
X(9_9) 144
X(9_10) 144
X(9_11) 96
X(9_12) 0
X(9_13) 0
X(9_14) 96
X(9_15) 144
X(9_16) 96
X(9_17) 144
X(10_0) 0
X(10_1) 0
X(10_2) 0
X(10_3) 192
X(10_4) 192
X(10_5) 192
X(10_6) 0
X(10_7) 0
X(10_8) 0
X(10_9) 192
X(10_10) 192
X(10_11) 192
X(10_12) 0
X(10_13) 0
X(10_14) 0
X(10_15) 192
X(10_16) 192
X(10_17) 192
Y(0_0) 1
Y(0_1) 1
Y(0_2) 1
Y(0_3) 1
Y(0_4) 1
Y(0_5) 1
Y(0_6) 1
Y(0_7) 1
Y(0_8) 1
Y(0_9) 1
Y(0_10) 1
Y(0_11) 1
Y(0_12) 1
Y(0_13) 1
Y(0_14) 1
Y(0_15) 1
Y(0_16) 1
Y(0_17) 1
Y(0_18) 1
Y(0_19) 0
Y(0_20) 0
Y(0_21) 0
Y(0_22) 0
Y(1_0) 0
Y(1_1) 0
Y(1_2) 1
Y(1_3) 1
Y(1_4) 1
Y(1_5) 1
Y(1_6) 1
Y(1_7) 1
Y(1_8) 1
Y(1_9) 1
Y(1_10) 1
Y(1_11) 1
Y(1_12) 1
Y(1_13) 1
Y(1_14) 1
Y(1_15) 1
Y(1_16) 1
Y(1_17) 1
Y(1_18) 1
Y(1_19) 1
Y(1_20) 1
Y(1_21) 1
Y(1_22) 1
Y(2_0) 1
Y(2_1) 1
Y(2_2) 1
Y(2_3) 1
Y(2_4) 1
Y(2_5) 1
Y(2_6) 1
Y(2_7) 1
Y(2_8) 1
Y(2_9) 1
Y(2_10) 1
Y(2_11) 1
Y(2_12) 1
Y(2_13) 1
Y(2_14) 1
Y(2_15) 1
Y(2_16) 1
Y(2_17) 1
Y(2_18) 1
Y(2_19) 1
Y(2_20) 1
Y(2_21) 0
Y(2_22) 0
Y(3_0) 1
Y(3_1) 1
Y(3_2) 1
Y(3_3) 1
Y(3_4) 1
Y(3_5) 1
Y(3_6) 1
Y(3_7) 1
Y(3_8) 1
Y(3_9) 1
Y(3_10) 1
Y(3_11) 1
Y(3_12) 1
Y(3_13) 1
Y(3_14) 1
Y(3_15) 1
Y(3_16) 1
Y(3_17) 1
Y(3_18) 1
Y(3_19) 1
Y(3_20) 0
Y(3_21) 0
Y(3_22) 0
Y(4_0) 0
Y(4_1) 0
Y(4_2) 0
Y(4_3) 1
Y(4_4) 1
Y(4_5) 1
Y(4_6) 1
Y(4_7) 1
Y(4_8) 1
Y(4_9) 1
Y(4_10) 1
Y(4_11) 1
Y(4_12) 1
Y(4_13) 1
Y(4_14) 1
Y(4_15) 1
Y(4_16) 1
Y(4_17) 1
Y(4_18) 1
Y(4_19) 1
Y(4_20) 1
Y(4_21) 1
Y(4_22) 1
Y(5_0) 0
Y(5_1) 1
Y(5_2) 1
Y(5_3) 1
Y(5_4) 1
Y(5_5) 1
Y(5_6) 1
Y(5_7) 1
Y(5_8) 1
Y(5_9) 1
Y(5_10) 1
Y(5_11) 1
Y(5_12) 1
Y(5_13) 1
Y(5_14) 1
Y(5_15) 1
Y(5_16) 1
Y(5_17) 1
Y(5_18) 1
Y(5_19) 0
Y(5_20) 0
Y(5_21) 0
Y(5_22) 0
Y(6_0) 0
Y(6_1) 0
Y(6_2) 1
Y(6_3) 1
Y(6_4) 1
Y(6_5) 1
Y(6_6) 1
Y(6_7) 1
Y(6_8) 1
Y(6_9) 1
Y(6_10) 1
Y(6_11) 1
Y(6_12) 1
Y(6_13) 1
Y(6_14) 1
Y(6_15) 1
Y(6_16) 1
Y(6_17) 1
Y(6_18) 1
Y(6_19) 1
Y(6_20) 1
Y(6_21) 1
Y(6_22) 1
Y(7_0) 0
Y(7_1) 0
Y(7_2) 0
Y(7_3) 1
Y(7_4) 1
Y(7_5) 1
Y(7_6) 1
Y(7_7) 1
Y(7_8) 1
Y(7_9) 1
Y(7_10) 1
Y(7_11) 1
Y(7_12) 1
Y(7_13) 1
Y(7_14) 1
Y(7_15) 1
Y(7_16) 1
Y(7_17) 1
Y(7_18) 1
Y(7_19) 1
Y(7_20) 1
Y(7_21) 1
Y(7_22) 1
Y(8_0) 0
Y(8_1) 0
Y(8_2) 1
Y(8_3) 1
Y(8_4) 1
Y(8_5) 1
Y(8_6) 1
Y(8_7) 1
Y(8_8) 1
Y(8_9) 1
Y(8_10) 1
Y(8_11) 1
Y(8_12) 1
Y(8_13) 1
Y(8_14) 1
Y(8_15) 1
Y(8_16) 1
Y(8_17) 1
Y(8_18) 1
Y(8_19) 1
Y(8_20) 1
Y(8_21) 1
Y(8_22) 1
Y(9_0) 0
Y(9_1) 0
Y(9_2) 1
Y(9_3) 1
Y(9_4) 1
Y(9_5) 1
Y(9_6) 1
Y(9_7) 1
Y(9_8) 1
Y(9_9) 1
Y(9_10) 1
Y(9_11) 1
Y(9_12) 1
Y(9_13) 1
Y(9_14) 1
Y(9_15) 1
Y(9_16) 1
Y(9_17) 1
Y(9_18) 1
Y(9_19) 1
Y(9_20) 1
Y(9_21) 1
Y(9_22) 1
Y(10_0) 0
Y(10_1) 0
Y(10_2) 0
Y(10_3) 1
Y(10_4) 1
Y(10_5) 1
Y(10_6) 1
Y(10_7) 1
Y(10_8) 1
Y(10_9) 1
Y(10_10) 1
Y(10_11) 1
Y(10_12) 1
Y(10_13) 1
Y(10_14) 1
Y(10_15) 1
Y(10_16) 1
Y(10_17) 1
Y(10_18) 1
Y(10_19) 1
Y(10_20) 1
Y(10_21) 1
Y(10_22) 1
XMULT(0_0) 10
XMULT(0_1) 8
XMULT(0_2) 0
XMULT(0_3) 0
XMULT(0_4) 3
XMULT(0_5) 0
XMULT(0_6) 10
XMULT(0_7) 8
XMULT(0_8) 0
XMULT(0_9) 0
XMULT(0_10) 3
XMULT(0_11) 0
XMULT(0_12) 10
XMULT(0_13) 8
XMULT(0_14) 0
XMULT(0_15) 0
XMULT(0_16) 0
XMULT(0_17) 0
XMULT(1_0) 0
XMULT(1_1) 0
XMULT(1_2) 3
XMULT(1_3) 2
XMULT(1_4) 2
XMULT(1_5) 3
XMULT(1_6) 0
XMULT(1_7) 0
XMULT(1_8) 3
XMULT(1_9) 2
XMULT(1_10) 2
XMULT(1_11) 3
XMULT(1_12) 0
XMULT(1_13) 0
XMULT(1_14) 3
XMULT(1_15) 2
XMULT(1_16) 2
XMULT(1_17) 3
XMULT(2_0) 5
XMULT(2_1) 5
XMULT(2_2) 5
XMULT(2_3) 0
XMULT(2_4) 0
XMULT(2_5) 0
XMULT(2_6) 5
XMULT(2_7) 5
XMULT(2_8) 4
XMULT(2_9) 2
XMULT(2_10) 0
XMULT(2_11) 0
XMULT(2_12) 5
XMULT(2_13) 2
XMULT(2_14) 4
XMULT(2_15) 5
XMULT(2_16) 0
XMULT(2_17) 0
XMULT(3_0) 9
XMULT(3_1) 9
XMULT(3_2) 9
XMULT(3_3) 0
XMULT(3_4) 3
XMULT(3_5) 0
XMULT(3_6) 9
XMULT(3_7) 9
XMULT(3_8) 9
XMULT(3_9) 0
XMULT(3_10) 3
XMULT(3_11) 0
XMULT(3_12) 9
XMULT(3_13) 9
XMULT(3_14) 9
XMULT(3_15) 0
XMULT(3_16) 0
XMULT(3_17) 0
XMULT(4_0) 0
XMULT(4_1) 0
XMULT(4_2) 0
XMULT(4_3) 4
XMULT(4_4) 4
XMULT(4_5) 4
XMULT(4_6) 0
XMULT(4_7) 0
XMULT(4_8) 0
XMULT(4_9) 4
XMULT(4_10) 4
XMULT(4_11) 4
XMULT(4_12) 0
XMULT(4_13) 0
XMULT(4_14) 0
XMULT(4_15) 4
XMULT(4_16) 4
XMULT(4_17) 4
XMULT(5_0) 0
XMULT(5_1) 3
XMULT(5_2) 0
XMULT(5_3) 0
XMULT(5_4) 2
XMULT(5_5) 3
XMULT(5_6) 3
XMULT(5_7) 3
XMULT(5_8) 0
XMULT(5_9) 0
XMULT(5_10) 2
XMULT(5_11) 3
XMULT(5_12) 3
XMULT(5_13) 3
XMULT(5_14) 0
XMULT(5_15) 0
XMULT(5_16) 0
XMULT(5_17) 0
XMULT(6_0) 0
XMULT(6_1) 0
XMULT(6_2) 2
XMULT(6_3) 2
XMULT(6_4) 2
XMULT(6_5) 2
XMULT(6_6) 0
XMULT(6_7) 0
XMULT(6_8) 2
XMULT(6_9) 2
XMULT(6_10) 2
XMULT(6_11) 2
XMULT(6_12) 0
XMULT(6_13) 0
XMULT(6_14) 2
XMULT(6_15) 2
XMULT(6_16) 2
XMULT(6_17) 2
XMULT(7_0) 0
XMULT(7_1) 0
XMULT(7_2) 0
XMULT(7_3) 3
XMULT(7_4) 3
XMULT(7_5) 3
XMULT(7_6) 0
XMULT(7_7) 0
XMULT(7_8) 0
XMULT(7_9) 3
XMULT(7_10) 3
XMULT(7_11) 3
XMULT(7_12) 0
XMULT(7_13) 0
XMULT(7_14) 0
XMULT(7_15) 3
XMULT(7_16) 3
XMULT(7_17) 3
XMULT(8_0) 0
XMULT(8_1) 0
XMULT(8_2) 3
XMULT(8_3) 4
XMULT(8_4) 4
XMULT(8_5) 2
XMULT(8_6) 0
XMULT(8_7) 0
XMULT(8_8) 2
XMULT(8_9) 4
XMULT(8_10) 4
XMULT(8_11) 3
XMULT(8_12) 0
XMULT(8_13) 0
XMULT(8_14) 2
XMULT(8_15) 4
XMULT(8_16) 4
XMULT(8_17) 3
XMULT(9_0) 0
XMULT(9_1) 0
XMULT(9_2) 2
XMULT(9_3) 3
XMULT(9_4) 3
XMULT(9_5) 2
XMULT(9_6) 0
XMULT(9_7) 0
XMULT(9_8) 2
XMULT(9_9) 3
XMULT(9_10) 3
XMULT(9_11) 2
XMULT(9_12) 0
XMULT(9_13) 0
XMULT(9_14) 2
XMULT(9_15) 3
XMULT(9_16) 2
XMULT(9_17) 3
XMULT(10_0) 0
XMULT(10_1) 0
XMULT(10_2) 0
XMULT(10_3) 4
XMULT(10_4) 4
XMULT(10_5) 4
XMULT(10_6) 0
XMULT(10_7) 0
XMULT(10_8) 0
XMULT(10_9) 4
XMULT(10_10) 4
XMULT(10_11) 4
XMULT(10_12) 0
XMULT(10_13) 0
XMULT(10_14) 0
XMULT(10_15) 4
XMULT(10_16) 4
XMULT(10_17) 4
AUXMULT(0_0) 0
AUXMULT(0_1) 0
AUXMULT(0_2) 1
AUXMULT(0_3) 1
AUXMULT(0_4) 0
AUXMULT(0_5) 1
AUXMULT(0_6) 0
AUXMULT(0_7) 0
AUXMULT(0_8) 1
AUXMULT(0_9) 1
AUXMULT(0_10) 0
AUXMULT(0_11) 1
AUXMULT(0_12) 0
AUXMULT(0_13) 0
AUXMULT(0_14) 1
AUXMULT(0_15) 1
AUXMULT(0_16) 1
AUXMULT(0_17) 1
AUXMULT(1_0) 1
AUXMULT(1_1) 1
AUXMULT(1_2) 0
AUXMULT(1_3) 0
AUXMULT(1_4) 0
AUXMULT(1_5) 0
AUXMULT(1_6) 1
AUXMULT(1_7) 1
AUXMULT(1_8) 0
AUXMULT(1_9) 0
AUXMULT(1_10) 0
AUXMULT(1_11) 0
AUXMULT(1_12) 1
AUXMULT(1_13) 1
AUXMULT(1_14) 0
AUXMULT(1_15) 0
AUXMULT(1_16) 0
AUXMULT(1_17) 0
AUXMULT(2_0) 0
AUXMULT(2_1) 0
AUXMULT(2_2) 0
AUXMULT(2_3) 1
AUXMULT(2_4) 1
AUXMULT(2_5) 1
AUXMULT(2_6) 0
AUXMULT(2_7) 0
AUXMULT(2_8) 0
AUXMULT(2_9) 0
AUXMULT(2_10) 1
AUXMULT(2_11) 1
AUXMULT(2_12) 0
AUXMULT(2_13) 0
AUXMULT(2_14) 0
AUXMULT(2_15) 0
AUXMULT(2_16) 1
AUXMULT(2_17) 1
AUXMULT(3_0) 0
AUXMULT(3_1) 0
AUXMULT(3_2) 0
AUXMULT(3_3) 1
AUXMULT(3_4) 0
AUXMULT(3_5) 1
AUXMULT(3_6) 0
AUXMULT(3_7) 0
AUXMULT(3_8) 0
AUXMULT(3_9) 1
AUXMULT(3_10) 0
AUXMULT(3_11) 1
AUXMULT(3_12) 0
AUXMULT(3_13) 0
AUXMULT(3_14) 0
AUXMULT(3_15) 1
AUXMULT(3_16) 1
AUXMULT(3_17) 1
AUXMULT(4_0) 1
AUXMULT(4_1) 1
AUXMULT(4_2) 1
AUXMULT(4_3) 0
AUXMULT(4_4) 0
AUXMULT(4_5) 0
AUXMULT(4_6) 1
AUXMULT(4_7) 1
AUXMULT(4_8) 1
AUXMULT(4_9) 0
AUXMULT(4_10) 0
AUXMULT(4_11) 0
AUXMULT(4_12) 1
AUXMULT(4_13) 1
AUXMULT(4_14) 1
AUXMULT(4_15) 0
AUXMULT(4_16) 0
AUXMULT(4_17) 0
AUXMULT(5_0) 1
AUXMULT(5_1) 0
AUXMULT(5_2) 1
AUXMULT(5_3) 1
AUXMULT(5_4) 0
AUXMULT(5_5) 0
AUXMULT(5_6) 0
AUXMULT(5_7) 0
AUXMULT(5_8) 1
AUXMULT(5_9) 1
AUXMULT(5_10) 0
AUXMULT(5_11) 0
AUXMULT(5_12) 0
AUXMULT(5_13) 0
AUXMULT(5_14) 1
AUXMULT(5_15) 1
AUXMULT(5_16) 1
AUXMULT(5_17) 1
AUXMULT(6_0) 1
AUXMULT(6_1) 1
AUXMULT(6_2) 0
AUXMULT(6_3) 0
AUXMULT(6_4) 0
AUXMULT(6_5) 0
AUXMULT(6_6) 1
AUXMULT(6_7) 1
AUXMULT(6_8) 0
AUXMULT(6_9) 0
AUXMULT(6_10) 0
AUXMULT(6_11) 0
AUXMULT(6_12) 1
AUXMULT(6_13) 1
AUXMULT(6_14) 0
AUXMULT(6_15) 0
AUXMULT(6_16) 0
AUXMULT(6_17) 0
AUXMULT(7_0) 1
AUXMULT(7_1) 1
AUXMULT(7_2) 1
AUXMULT(7_3) 0
AUXMULT(7_4) 0
AUXMULT(7_5) 0
AUXMULT(7_6) 1
AUXMULT(7_7) 1
AUXMULT(7_8) 1
AUXMULT(7_9) 0
AUXMULT(7_10) 0
AUXMULT(7_11) 0
AUXMULT(7_12) 1
AUXMULT(7_13) 1
AUXMULT(7_14) 1
AUXMULT(7_15) 0
AUXMULT(7_16) 0
AUXMULT(7_17) 0
AUXMULT(8_0) 1
AUXMULT(8_1) 1
AUXMULT(8_2) 0
AUXMULT(8_3) 0
AUXMULT(8_4) 0
AUXMULT(8_5) 0
AUXMULT(8_6) 1
AUXMULT(8_7) 1
AUXMULT(8_8) 0
AUXMULT(8_9) 0
AUXMULT(8_10) 0
AUXMULT(8_11) 0
AUXMULT(8_12) 1
AUXMULT(8_13) 1
AUXMULT(8_14) 0
AUXMULT(8_15) 0
AUXMULT(8_16) 0
AUXMULT(8_17) 0
AUXMULT(9_0) 1
AUXMULT(9_1) 1
AUXMULT(9_2) 0
AUXMULT(9_3) 0
AUXMULT(9_4) 0
AUXMULT(9_5) 0
AUXMULT(9_6) 1
AUXMULT(9_7) 1
AUXMULT(9_8) 0
AUXMULT(9_9) 0
AUXMULT(9_10) 0
AUXMULT(9_11) 0
AUXMULT(9_12) 1
AUXMULT(9_13) 1
AUXMULT(9_14) 0
AUXMULT(9_15) 0
AUXMULT(9_16) 0
AUXMULT(9_17) 0
AUXMULT(10_0) 1
AUXMULT(10_1) 1
AUXMULT(10_2) 1
AUXMULT(10_3) 0
AUXMULT(10_4) 0
AUXMULT(10_5) 0
AUXMULT(10_6) 1
AUXMULT(10_7) 1
AUXMULT(10_8) 1
AUXMULT(10_9) 0
AUXMULT(10_10) 0
AUXMULT(10_11) 0
AUXMULT(10_12) 1
AUXMULT(10_13) 1
AUXMULT(10_14) 1
AUXMULT(10_15) 0
AUXMULT(10_16) 0
AUXMULT(10_17) 0
XRES(0_0) 30
XRES(0_1) 10
XRES(0_2) 0
XRES(0_3) 0
XRES(0_4) 0
XRES(0_5) 0
XRES(0_6) 18
XRES(0_7) 24
XRES(0_8) 0
XRES(0_9) 0
XRES(0_10) 0
XRES(0_11) 0
XRES(0_12) 18
XRES(0_13) 24
XRES(0_14) 0
XRES(0_15) 0
XRES(0_16) 0
XRES(0_17) 0
XRES(1_0) 0
XRES(1_1) 0
XRES(1_2) 9
XRES(1_3) 0
XRES(1_4) 0
XRES(1_5) 8
XRES(1_6) 0
XRES(1_7) 0
XRES(1_8) 0
XRES(1_9) 6
XRES(1_10) 2
XRES(1_11) 9
XRES(1_12) 0
XRES(1_13) 0
XRES(1_14) 0
XRES(1_15) 6
XRES(1_16) 2
XRES(1_17) 9
XRES(2_0) 15
XRES(2_1) 15
XRES(2_2) 15
XRES(2_3) 0
XRES(2_4) 0
XRES(2_5) 0
XRES(2_6) 15
XRES(2_7) 11
XRES(2_8) 12
XRES(2_9) 0
XRES(2_10) 0
XRES(2_11) 0
XRES(2_12) 15
XRES(2_13) 0
XRES(2_14) 8
XRES(2_15) 15
XRES(2_16) 0
XRES(2_17) 0
XRES(3_0) 19
XRES(3_1) 0
XRES(3_2) 19
XRES(3_3) 0
XRES(3_4) 0
XRES(3_5) 0
XRES(3_6) 19
XRES(3_7) 19
XRES(3_8) 19
XRES(3_9) 0
XRES(3_10) 0
XRES(3_11) 0
XRES(3_12) 19
XRES(3_13) 19
XRES(3_14) 19
XRES(3_15) 0
XRES(3_16) 0
XRES(3_17) 0
XRES(4_0) 0
XRES(4_1) 0
XRES(4_2) 0
XRES(4_3) 11
XRES(4_4) 12
XRES(4_5) 0
XRES(4_6) 0
XRES(4_7) 0
XRES(4_8) 0
XRES(4_9) 11
XRES(4_10) 0
XRES(4_11) 12
XRES(4_12) 0
XRES(4_13) 0
XRES(4_14) 0
XRES(4_15) 0
XRES(4_16) 11
XRES(4_17) 12
XRES(5_0) 0
XRES(5_1) 0
XRES(5_2) 0
XRES(5_3) 0
XRES(5_4) 0
XRES(5_5) 0
XRES(5_6) 9
XRES(5_7) 0
XRES(5_8) 0
XRES(5_9) 0
XRES(5_10) 0
XRES(5_11) 0
XRES(5_12) 9
XRES(5_13) 0
XRES(5_14) 0
XRES(5_15) 0
XRES(5_16) 0
XRES(5_17) 0
XRES(6_0) 0
XRES(6_1) 0
XRES(6_2) 6
XRES(6_3) 6
XRES(6_4) 6
XRES(6_5) 6
XRES(6_6) 0
XRES(6_7) 0
XRES(6_8) 6
XRES(6_9) 6
XRES(6_10) 6
XRES(6_11) 6
XRES(6_12) 0
XRES(6_13) 0
XRES(6_14) 6
XRES(6_15) 6
XRES(6_16) 6
XRES(6_17) 6
XRES(7_0) 0
XRES(7_1) 0
XRES(7_2) 0
XRES(7_3) 9
XRES(7_4) 9
XRES(7_5) 4
XRES(7_6) 0
XRES(7_7) 0
XRES(7_8) 0
XRES(7_9) 9
XRES(7_10) 9
XRES(7_11) 4
XRES(7_12) 0
XRES(7_13) 0
XRES(7_14) 0
XRES(7_15) 9
XRES(7_16) 9
XRES(7_17) 2
XRES(8_0) 0
XRES(8_1) 0
XRES(8_2) 7
XRES(8_3) 12
XRES(8_4) 12
XRES(8_5) 0
XRES(8_6) 0
XRES(8_7) 0
XRES(8_8) 6
XRES(8_9) 12
XRES(8_10) 12
XRES(8_11) 0
XRES(8_12) 0
XRES(8_13) 0
XRES(8_14) 6
XRES(8_15) 12
XRES(8_16) 12
XRES(8_17) 0
XRES(9_0) 0
XRES(9_1) 0
XRES(9_2) 6
XRES(9_3) 9
XRES(9_4) 9
XRES(9_5) 6
XRES(9_6) 0
XRES(9_7) 0
XRES(9_8) 6
XRES(9_9) 9
XRES(9_10) 9
XRES(9_11) 6
XRES(9_12) 0
XRES(9_13) 0
XRES(9_14) 6
XRES(9_15) 9
XRES(9_16) 6
XRES(9_17) 9
XRES(10_0) 0
XRES(10_1) 0
XRES(10_2) 0
XRES(10_3) 12
XRES(10_4) 12
XRES(10_5) 12
XRES(10_6) 0
XRES(10_7) 0
XRES(10_8) 0
XRES(10_9) 12
XRES(10_10) 12
XRES(10_11) 12
XRES(10_12) 0
XRES(10_13) 0
XRES(10_14) 0
XRES(10_15) 12
XRES(10_16) 12
XRES(10_17) 12
Y2(0_0) 0
Y2(0_1) 0
Y2(0_2) 0
Y2(0_3) 0
Y2(0_4) 0
Y2(0_5) 0
Y2(0_6) 0
Y2(0_7) 0
Y2(0_8) 0
Y2(0_9) 0
Y2(0_10) 0
Y2(0_11) 0
Y2(0_12) 0
Y2(0_13) 0
Y2(0_14) 0
Y2(0_15) 0
Y2(0_16) 1
Y2(0_17) 1
Y2(0_18) 1
Y2(0_19) 1
Y2(0_20) 1
Y2(0_21) 1
Y2(0_22) 1
Y2(1_0) 0
Y2(1_1) 0
Y2(1_2) 0
Y2(1_3) 0
Y2(1_4) 0
Y2(1_5) 0
Y2(1_6) 0
Y2(1_7) 0
Y2(1_8) 0
Y2(1_9) 0
Y2(1_10) 0
Y2(1_11) 0
Y2(1_12) 0
Y2(1_13) 0
Y2(1_14) 0
Y2(1_15) 0
Y2(1_16) 1
Y2(1_17) 1
Y2(1_18) 1
Y2(1_19) 1
Y2(1_20) 1
Y2(1_21) 1
Y2(1_22) 1
Y2(2_0) 0
Y2(2_1) 0
Y2(2_2) 0
Y2(2_3) 0
Y2(2_4) 0
Y2(2_5) 0
Y2(2_6) 0
Y2(2_7) 0
Y2(2_8) 0
Y2(2_9) 0
Y2(2_10) 0
Y2(2_11) 0
Y2(2_12) 0
Y2(2_13) 0
Y2(2_14) 0
Y2(2_15) 0
Y2(2_16) 1
Y2(2_17) 1
Y2(2_18) 1
Y2(2_19) 1
Y2(2_20) 1
Y2(2_21) 1
Y2(2_22) 1
Y2(3_0) 0
Y2(3_1) 0
Y2(3_2) 0
Y2(3_3) 0
Y2(3_4) 0
Y2(3_5) 0
Y2(3_6) 0
Y2(3_7) 0
Y2(3_8) 0
Y2(3_9) 0
Y2(3_10) 0
Y2(3_11) 0
Y2(3_12) 0
Y2(3_13) 0
Y2(3_14) 0
Y2(3_15) 0
Y2(3_16) 1
Y2(3_17) 1
Y2(3_18) 1
Y2(3_19) 1
Y2(3_20) 1
Y2(3_21) 1
Y2(3_22) 1
Y2(4_0) 0
Y2(4_1) 0
Y2(4_2) 0
Y2(4_3) 0
Y2(4_4) 0
Y2(4_5) 0
Y2(4_6) 0
Y2(4_7) 0
Y2(4_8) 0
Y2(4_9) 0
Y2(4_10) 0
Y2(4_11) 0
Y2(4_12) 0
Y2(4_13) 0
Y2(4_14) 0
Y2(4_15) 0
Y2(4_16) 1
Y2(4_17) 1
Y2(4_18) 1
Y2(4_19) 1
Y2(4_20) 1
Y2(4_21) 1
Y2(4_22) 1
Y2(5_0) 0
Y2(5_1) 0
Y2(5_2) 0
Y2(5_3) 0
Y2(5_4) 0
Y2(5_5) 0
Y2(5_6) 0
Y2(5_7) 0
Y2(5_8) 0
Y2(5_9) 0
Y2(5_10) 0
Y2(5_11) 0
Y2(5_12) 0
Y2(5_13) 0
Y2(5_14) 0
Y2(5_15) 0
Y2(5_16) 1
Y2(5_17) 1
Y2(5_18) 1
Y2(5_19) 1
Y2(5_20) 1
Y2(5_21) 1
Y2(5_22) 1
Y2(6_0) 0
Y2(6_1) 0
Y2(6_2) 0
Y2(6_3) 0
Y2(6_4) 0
Y2(6_5) 0
Y2(6_6) 0
Y2(6_7) 0
Y2(6_8) 0
Y2(6_9) 0
Y2(6_10) 0
Y2(6_11) 0
Y2(6_12) 0
Y2(6_13) 0
Y2(6_14) 0
Y2(6_15) 0
Y2(6_16) 1
Y2(6_17) 1
Y2(6_18) 1
Y2(6_19) 1
Y2(6_20) 1
Y2(6_21) 1
Y2(6_22) 1
Y2(7_0) 0
Y2(7_1) 0
Y2(7_2) 0
Y2(7_3) 0
Y2(7_4) 0
Y2(7_5) 0
Y2(7_6) 0
Y2(7_7) 0
Y2(7_8) 0
Y2(7_9) 0
Y2(7_10) 0
Y2(7_11) 0
Y2(7_12) 0
Y2(7_13) 0
Y2(7_14) 0
Y2(7_15) 0
Y2(7_16) 1
Y2(7_17) 1
Y2(7_18) 1
Y2(7_19) 1
Y2(7_20) 1
Y2(7_21) 1
Y2(7_22) 1
Y2(8_0) 0
Y2(8_1) 0
Y2(8_2) 0
Y2(8_3) 0
Y2(8_4) 0
Y2(8_5) 0
Y2(8_6) 0
Y2(8_7) 0
Y2(8_8) 0
Y2(8_9) 0
Y2(8_10) 0
Y2(8_11) 0
Y2(8_12) 0
Y2(8_13) 0
Y2(8_14) 0
Y2(8_15) 0
Y2(8_16) 1
Y2(8_17) 1
Y2(8_18) 1
Y2(8_19) 1
Y2(8_20) 1
Y2(8_21) 1
Y2(8_22) 1
Y2(9_0) 0
Y2(9_1) 0
Y2(9_2) 0
Y2(9_3) 0
Y2(9_4) 0
Y2(9_5) 0
Y2(9_6) 0
Y2(9_7) 0
Y2(9_8) 0
Y2(9_9) 0
Y2(9_10) 0
Y2(9_11) 0
Y2(9_12) 0
Y2(9_13) 0
Y2(9_14) 0
Y2(9_15) 0
Y2(9_16) 1
Y2(9_17) 1
Y2(9_18) 1
Y2(9_19) 1
Y2(9_20) 1
Y2(9_21) 1
Y2(9_22) 1
Y2(10_0) 0
Y2(10_1) 0
Y2(10_2) 0
Y2(10_3) 0
Y2(10_4) 0
Y2(10_5) 0
Y2(10_6) 0
Y2(10_7) 0
Y2(10_8) 0
Y2(10_9) 0
Y2(10_10) 0
Y2(10_11) 0
Y2(10_12) 0
Y2(10_13) 0
Y2(10_14) 0
Y2(10_15) 0
Y2(10_16) 1
Y2(10_17) 1
Y2(10_18) 1
Y2(10_19) 1
Y2(10_20) 1
Y2(10_21) 1
Y2(10_22) 1
